\ Model MTZ_MODEL
\ LP format - for model browsing. Use MPS format to capture full model detail.
Minimize
  p[0,1] + p[0,2] + p[0,3] + p[0,4] + p[1,0] + p[1,2] + p[1,3] + p[1,4]
   + p[2,0] + p[2,1] + p[2,3] + p[2,4] + p[3,0] + p[3,1] + p[3,2] + p[3,4]
   + p[4,0] + p[4,1] + p[4,2] + p[4,3] + dc[0] + dc[1] + dc[2] + dc[3]
   + dc[4]
Subject To
 p2: p[0,1] - 52.56693868789466 z[0,1] >= 0
 p3: p[0,1] - 62.81473073786769 z[0,1] - dcc[0,1] >= -62.81473073786769
 R2: dcc[0,1] <= 62.81473073786769
 R3: x[0,1,0] - x[1,0,0] + dif[0,1,0] >= 0
 R4: - x[0,1,0] + x[1,0,0] + dif[0,1,0] >= 0
 R5: x[0,1,1] - x[1,0,1] + dif[0,1,1] >= 0
 R6: - x[0,1,1] + x[1,0,1] + dif[0,1,1] >= 0
 p2: p[0,2] - 25.0212987138947 z[0,2] >= 0
 p3: p[0,2] - 36.56805112889325 z[0,2] - dcc[0,2] >= -36.56805112889325
 R9: dcc[0,2] <= 36.56805112889325
 R10: x[0,1,0] - x[2,0,0] + dif[0,2,0] >= 0
 R11: - x[0,1,0] + x[2,0,0] + dif[0,2,0] >= 0
 R12: x[0,1,1] - x[2,0,1] + dif[0,2,1] >= 0
 R13: - x[0,1,1] + x[2,0,1] + dif[0,2,1] >= 0
 p2: p[0,3] - 84.58151136190298 z[0,3] >= 0
 p3: p[0,3] - 94.89841120914932 z[0,3] - dcc[0,3] >= -94.89841120914932
 R16: dcc[0,3] <= 94.89841120914932
 R17: x[0,1,0] - x[3,0,0] + dif[0,3,0] >= 0
 R18: - x[0,1,0] + x[3,0,0] + dif[0,3,0] >= 0
 R19: x[0,1,1] - x[3,0,1] + dif[0,3,1] >= 0
 R20: - x[0,1,1] + x[3,0,1] + dif[0,3,1] >= 0
 p2: p[0,4] - 35.37284923963708 z[0,4] >= 0
 p3: p[0,4] - 47.31650337571597 z[0,4] - dcc[0,4] >= -47.31650337571597
 R23: dcc[0,4] <= 47.31650337571597
 R24: x[0,1,0] - x[4,0,0] + dif[0,4,0] >= 0
 R25: - x[0,1,0] + x[4,0,0] + dif[0,4,0] >= 0
 R26: x[0,1,1] - x[4,0,1] + dif[0,4,1] >= 0
 R27: - x[0,1,1] + x[4,0,1] + dif[0,4,1] >= 0
 p2: p[1,0] - 52.56693868789466 z[1,0] >= 0
 p3: p[1,0] - 62.81473073786769 z[1,0] - dcc[1,0] >= -62.81473073786769
 R30: dcc[1,0] <= 62.81473073786769
 R31: - x[0,0,0] + x[1,1,0] + dif[1,0,0] >= 0
 R32: x[0,0,0] - x[1,1,0] + dif[1,0,0] >= 0
 R33: - x[0,0,1] + x[1,1,1] + dif[1,0,1] >= 0
 R34: x[0,0,1] - x[1,1,1] + dif[1,0,1] >= 0
 p2: p[1,2] - 40.45250334768073 z[1,2] >= 0
 p3: p[1,2] - 48.67295366789563 z[1,2] - dcc[1,2] >= -48.67295366789563
 R37: dcc[1,2] <= 48.67295366789563
 R38: x[1,1,0] - x[2,0,0] + dif[1,2,0] >= 0
 R39: - x[1,1,0] + x[2,0,0] + dif[1,2,0] >= 0
 R40: x[1,1,1] - x[2,0,1] + dif[1,2,1] >= 0
 R41: - x[1,1,1] + x[2,0,1] + dif[1,2,1] >= 0
 p2: p[1,3] - 71.58725409703352 z[1,3] >= 0
 p3: p[1,3] - 78.39727115624508 z[1,3] - dcc[1,3] >= -78.39727115624508
 R44: dcc[1,3] <= 78.39727115624508
 R45: x[1,1,0] - x[3,0,0] + dif[1,3,0] >= 0
 R46: - x[1,1,0] + x[3,0,0] + dif[1,3,0] >= 0
 R47: x[1,1,1] - x[3,0,1] + dif[1,3,1] >= 0
 R48: - x[1,1,1] + x[3,0,1] + dif[1,3,1] >= 0
 p2: p[1,4] - 58.35598722310981 z[1,4] >= 0
 p3: p[1,4] - 67.32664748198147 z[1,4] - dcc[1,4] >= -67.32664748198147
 R51: dcc[1,4] <= 67.32664748198147
 R52: x[1,1,0] - x[4,0,0] + dif[1,4,0] >= 0
 R53: - x[1,1,0] + x[4,0,0] + dif[1,4,0] >= 0
 R54: x[1,1,1] - x[4,0,1] + dif[1,4,1] >= 0
 R55: - x[1,1,1] + x[4,0,1] + dif[1,4,1] >= 0
 p2: p[2,0] - 25.0212987138947 z[2,0] >= 0
 p3: p[2,0] - 36.56805112889325 z[2,0] - dcc[2,0] >= -36.56805112889325
 R58: dcc[2,0] <= 36.56805112889325
 R59: - x[0,0,0] + x[2,1,0] + dif[2,0,0] >= 0
 R60: x[0,0,0] - x[2,1,0] + dif[2,0,0] >= 0
 R61: - x[0,0,1] + x[2,1,1] + dif[2,0,1] >= 0
 R62: x[0,0,1] - x[2,1,1] + dif[2,0,1] >= 0
 p2: p[2,1] - 40.45250334768073 z[2,1] >= 0
 p3: p[2,1] - 48.67295366789563 z[2,1] - dcc[2,1] >= -48.67295366789563
 R65: dcc[2,1] <= 48.67295366789563
 R66: - x[1,0,0] + x[2,1,0] + dif[2,1,0] >= 0
 R67: x[1,0,0] - x[2,1,0] + dif[2,1,0] >= 0
 R68: - x[1,0,1] + x[2,1,1] + dif[2,1,1] >= 0
 R69: x[1,0,1] - x[2,1,1] + dif[2,1,1] >= 0
 p2: p[2,3] - 55.11469270655128 z[2,3] >= 0
 p3: p[2,3] - 63.03871159694901 z[2,3] - dcc[2,3] >= -63.03871159694901
 R72: dcc[2,3] <= 63.03871159694901
 R73: x[2,1,0] - x[3,0,0] + dif[2,3,0] >= 0
 R74: - x[2,1,0] + x[3,0,0] + dif[2,3,0] >= 0
 R75: x[2,1,1] - x[3,0,1] + dif[2,3,1] >= 0
 R76: - x[2,1,1] + x[3,0,1] + dif[2,3,1] >= 0
 p2: p[2,4] - 14.39320522962156 z[2,4] >= 0
 p3: p[2,4] - 23.95221247119747 z[2,4] - dcc[2,4] >= -23.95221247119747
 R79: dcc[2,4] <= 23.95221247119747
 R80: x[2,1,0] - x[4,0,0] + dif[2,4,0] >= 0
 R81: - x[2,1,0] + x[4,0,0] + dif[2,4,0] >= 0
 R82: x[2,1,1] - x[4,0,1] + dif[2,4,1] >= 0
 R83: - x[2,1,1] + x[4,0,1] + dif[2,4,1] >= 0
 p2: p[3,0] - 84.58151136190298 z[3,0] >= 0
 p3: p[3,0] - 94.89841120914932 z[3,0] - dcc[3,0] >= -94.89841120914932
 R86: dcc[3,0] <= 94.89841120914932
 R87: - x[0,0,0] + x[3,1,0] + dif[3,0,0] >= 0
 R88: x[0,0,0] - x[3,1,0] + dif[3,0,0] >= 0
 R89: - x[0,0,1] + x[3,1,1] + dif[3,0,1] >= 0
 R90: x[0,0,1] - x[3,1,1] + dif[3,0,1] >= 0
 p2: p[3,1] - 71.58725409703352 z[3,1] >= 0
 p3: p[3,1] - 78.39727115624508 z[3,1] - dcc[3,1] >= -78.39727115624508
 R93: dcc[3,1] <= 78.39727115624508
 R94: - x[1,0,0] + x[3,1,0] + dif[3,1,0] >= 0
 R95: x[1,0,0] - x[3,1,0] + dif[3,1,0] >= 0
 R96: - x[1,0,1] + x[3,1,1] + dif[3,1,1] >= 0
 R97: x[1,0,1] - x[3,1,1] + dif[3,1,1] >= 0
 p2: p[3,2] - 55.11469270655128 z[3,2] >= 0
 p3: p[3,2] - 63.03871159694901 z[3,2] - dcc[3,2] >= -63.03871159694901
 R100: dcc[3,2] <= 63.03871159694901
 R101: - x[2,0,0] + x[3,1,0] + dif[3,2,0] >= 0
 R102: x[2,0,0] - x[3,1,0] + dif[3,2,0] >= 0
 R103: - x[2,0,1] + x[3,1,1] + dif[3,2,1] >= 0
 R104: x[2,0,1] - x[3,1,1] + dif[3,2,1] >= 0
 p2: p[3,4] - 50.04483760150834 z[3,4] >= 0
 p3: p[3,4] - 59.07211972383995 z[3,4] - dcc[3,4] >= -59.07211972383995
 R107: dcc[3,4] <= 59.07211972383995
 R108: x[3,1,0] - x[4,0,0] + dif[3,4,0] >= 0
 R109: - x[3,1,0] + x[4,0,0] + dif[3,4,0] >= 0
 R110: x[3,1,1] - x[4,0,1] + dif[3,4,1] >= 0
 R111: - x[3,1,1] + x[4,0,1] + dif[3,4,1] >= 0
 p2: p[4,0] - 35.37284923963708 z[4,0] >= 0
 p3: p[4,0] - 47.31650337571597 z[4,0] - dcc[4,0] >= -47.31650337571597
 R114: dcc[4,0] <= 47.31650337571597
 R115: - x[0,0,0] + x[4,1,0] + dif[4,0,0] >= 0
 R116: x[0,0,0] - x[4,1,0] + dif[4,0,0] >= 0
 R117: - x[0,0,1] + x[4,1,1] + dif[4,0,1] >= 0
 R118: x[0,0,1] - x[4,1,1] + dif[4,0,1] >= 0
 p2: p[4,1] - 58.35598722310981 z[4,1] >= 0
 p3: p[4,1] - 67.32664748198147 z[4,1] - dcc[4,1] >= -67.32664748198147
 R121: dcc[4,1] <= 67.32664748198147
 R122: - x[1,0,0] + x[4,1,0] + dif[4,1,0] >= 0
 R123: x[1,0,0] - x[4,1,0] + dif[4,1,0] >= 0
 R124: - x[1,0,1] + x[4,1,1] + dif[4,1,1] >= 0
 R125: x[1,0,1] - x[4,1,1] + dif[4,1,1] >= 0
 p2: p[4,2] - 14.39320522962156 z[4,2] >= 0
 p3: p[4,2] - 23.95221247119747 z[4,2] - dcc[4,2] >= -23.95221247119747
 R128: dcc[4,2] <= 23.95221247119747
 R129: - x[2,0,0] + x[4,1,0] + dif[4,2,0] >= 0
 R130: x[2,0,0] - x[4,1,0] + dif[4,2,0] >= 0
 R131: - x[2,0,1] + x[4,1,1] + dif[4,2,1] >= 0
 R132: x[2,0,1] - x[4,1,1] + dif[4,2,1] >= 0
 p2: p[4,3] - 50.04483760150834 z[4,3] >= 0
 p3: p[4,3] - 59.07211972383995 z[4,3] - dcc[4,3] >= -59.07211972383995
 R135: dcc[4,3] <= 59.07211972383995
 R136: - x[3,0,0] + x[4,1,0] + dif[4,3,0] >= 0
 R137: x[3,0,0] - x[4,1,0] + dif[4,3,0] >= 0
 R138: - x[3,0,1] + x[4,1,1] + dif[4,3,1] >= 0
 R139: x[3,0,1] - x[4,1,1] + dif[4,3,1] >= 0
 R140: z[0,1] + z[0,2] + z[0,3] + z[0,4] = 1
 R141: z[1,0] + z[1,2] + z[1,3] + z[1,4] = 1
 R142: z[2,0] + z[2,1] + z[2,3] + z[2,4] = 1
 R143: z[3,0] + z[3,1] + z[3,2] + z[3,4] = 1
 R144: z[4,0] + z[4,1] + z[4,2] + z[4,3] = 1
 R145: z[1,0] + z[2,0] + z[3,0] + z[4,0] = 1
 R146: z[0,1] + z[2,1] + z[3,1] + z[4,1] = 1
 R147: z[0,2] + z[1,2] + z[3,2] + z[4,2] = 1
 R148: z[0,3] + z[1,3] + z[2,3] + z[4,3] = 1
 R149: z[0,4] + z[1,4] + z[2,4] + z[3,4] = 1
 rest7: z[0,1] + z[1,0] <= 1
 rest7: z[0,2] + z[2,0] <= 1
 rest7: z[0,3] + z[3,0] <= 1
 rest7: z[0,4] + z[4,0] <= 1
 rest7: z[0,1] + z[1,0] <= 1
 rest7: z[1,2] + z[2,1] <= 1
 rest7: z[1,3] + z[3,1] <= 1
 rest7: z[1,4] + z[4,1] <= 1
 rest7: z[0,2] + z[2,0] <= 1
 rest7: z[1,2] + z[2,1] <= 1
 rest7: z[2,3] + z[3,2] <= 1
 rest7: z[2,4] + z[4,2] <= 1
 rest7: z[0,3] + z[3,0] <= 1
 rest7: z[1,3] + z[3,1] <= 1
 rest7: z[2,3] + z[3,2] <= 1
 rest7: z[3,4] + z[4,3] <= 1
 rest7: z[0,4] + z[4,0] <= 1
 rest7: z[1,4] + z[4,1] <= 1
 rest7: z[2,4] + z[4,2] <= 1
 rest7: z[3,4] + z[4,3] <= 1
 R170: 5 z[1,2] + sc[1] - sc[2] <= 4
 R171: 5 z[1,3] + sc[1] - sc[3] <= 4
 R172: 5 z[1,4] + sc[1] - sc[4] <= 4
 R173: 5 z[2,1] - sc[1] + sc[2] <= 4
 R174: 5 z[2,3] + sc[2] - sc[3] <= 4
 R175: 5 z[2,4] + sc[2] - sc[4] <= 4
 R176: 5 z[3,1] - sc[1] + sc[3] <= 4
 R177: 5 z[3,2] - sc[2] + sc[3] <= 4
 R178: 5 z[3,4] + sc[3] - sc[4] <= 4
 R179: 5 z[4,1] - sc[1] + sc[4] <= 4
 R180: 5 z[4,2] - sc[2] + sc[4] <= 4
 R181: 5 z[4,3] - sc[3] + sc[4] <= 4
 rest10: sc[0] = 0
 rest11: sc[1] >= 1
 rest11: sc[2] >= 1
 rest11: sc[3] >= 1
 rest11: sc[4] >= 1
 R187: dc[0] <= 7.006880887431327
 envConv: mu[0,0] + mu[0,1] + mu[0,2] + mu[0,3] + mu[0,4] + mu[0,5] = 1
 inP1: x[0,0,0] - 39.94543574848507 mu[0,0] - 35.82837508472504 mu[0,1]
   - 35.83315823320714 mu[0,2] - 39.9531750453023 mu[0,3]
   - 42.49470232091605 mu[0,4] - 39.94543574848505 mu[0,5] = 0
 inP1: x[0,1,0] - 39.94543574848507 mu[0,0] - 35.82837508472504 mu[0,1]
   - 35.83315823320714 mu[0,2] - 39.9531750453023 mu[0,3]
   - 42.49470232091605 mu[0,4] - 39.94543574848505 mu[0,5] = 0
 inP1: x[0,0,1] - 8.394259737619308 mu[0,0] - 7.051516337436098 mu[0,1]
   - 2.721028435443296 mu[0,2] - 1.387383124324689 mu[0,3]
   - 4.893632895109298 mu[0,4] - 8.394259737619317 mu[0,5] = 0
 inP1: x[0,1,1] - 8.394259737619308 mu[0,0] - 7.051516337436098 mu[0,1]
   - 2.721028435443296 mu[0,2] - 1.387383124324689 mu[0,3]
   - 4.893632895109298 mu[0,4] - 8.394259737619317 mu[0,5] = 0
 R193: - x[0,0,0] + x[0,1,0] + difc[0,0] >= 0
 R194: x[0,0,0] - x[0,1,0] + difc[0,0] >= 0
 R195: - x[0,0,1] + x[0,1,1] + difc[0,1] >= 0
 R196: x[0,0,1] - x[0,1,1] + difc[0,1] >= 0
 R197: dc[1] <= 3.529506279918182
 envConv: mu[1,0] + mu[1,1] + mu[1,2] + mu[1,3] + mu[1,4] + mu[1,5]
   + mu[1,6] + mu[1,7] = 1
 inP1: x[1,0,0] - 86.98232105127337 mu[1,0] - 85.43070523851954 mu[1,1]
   - 84.65452929381127 mu[1,2] - 85.23826953461779 mu[1,3]
   - 86.74235765348087 mu[1,4] - 88.03418461909041 mu[1,5]
   - 88.14097837787466 mu[1,6] - 86.98232105127336 mu[1,7] = 0
 inP1: x[1,1,0] - 86.98232105127337 mu[1,0] - 85.43070523851954 mu[1,1]
   - 84.65452929381127 mu[1,2] - 85.23826953461779 mu[1,3]
   - 86.74235765348087 mu[1,4] - 88.03418461909041 mu[1,5]
   - 88.14097837787466 mu[1,6] - 86.98232105127336 mu[1,7] = 0
 inP1: x[1,0,1] - 38.56067160286364 mu[1,0] - 38.31606557811926 mu[1,1]
   - 36.95045412511173 mu[1,2] - 35.4921705213528 mu[1,3]
   - 35.0393320640373 mu[1,4] - 35.93293534774491 mu[1,5]
   - 37.50007887365877 mu[1,6] - 38.56067160286364 mu[1,7] = 0
 inP1: x[1,1,1] - 38.56067160286364 mu[1,0] - 38.31606557811926 mu[1,1]
   - 36.95045412511173 mu[1,2] - 35.4921705213528 mu[1,3]
   - 35.0393320640373 mu[1,4] - 35.93293534774491 mu[1,5]
   - 37.50007887365877 mu[1,6] - 38.56067160286364 mu[1,7] = 0
 R203: - x[1,0,0] + x[1,1,0] + difc[1,0] >= 0
 R204: x[1,0,0] - x[1,1,0] + difc[1,0] >= 0
 R205: - x[1,0,1] + x[1,1,1] + difc[1,1] >= 0
 R206: x[1,0,1] - x[1,1,1] + difc[1,1] >= 0
 R207: dc[2] <= 4.727452753660452
 envConv: mu[2,0] + mu[2,1] + mu[2,2] + mu[2,3] + mu[2,4] + mu[2,5] = 1
 inP1: x[2,0,0] - 43.44152292228056 mu[2,0] - 40.52146425486153 mu[2,1]
   - 39.525240843826 mu[2,2] - 41.82959958283665 mu[2,3]
   - 44.24999501685367 mu[2,4] - 43.44152292228055 mu[2,5] = 0
 inP1: x[2,1,0] - 43.44152292228056 mu[2,0] - 40.52146425486153 mu[2,1]
   - 39.525240843826 mu[2,2] - 41.82959958283665 mu[2,3]
   - 44.24999501685367 mu[2,4] - 43.44152292228055 mu[2,5] = 0
 inP1: x[2,0,1] - 37.78867145941706 mu[2,0] - 37.88737816782268 mu[2,1]
   - 35.14073939456581 mu[2,2] - 33.34451656946917 mu[2,3]
   - 34.98102858544791 mu[2,4] - 37.78867145941707 mu[2,5] = 0
 inP1: x[2,1,1] - 37.78867145941706 mu[2,0] - 37.88737816782268 mu[2,1]
   - 35.14073939456581 mu[2,2] - 33.34451656946917 mu[2,3]
   - 34.98102858544791 mu[2,4] - 37.78867145941707 mu[2,5] = 0
 R213: - x[2,0,0] + x[2,1,0] + difc[2,0] >= 0
 R214: x[2,0,0] - x[2,1,0] + difc[2,0] >= 0
 R215: - x[2,0,1] + x[2,1,1] + difc[2,1] >= 0
 R216: x[2,0,1] - x[2,1,1] + difc[2,1] >= 0
 R217: dc[3] <= 3.3333916222203
 envConv: mu[3,0] + mu[3,1] + mu[3,2] + mu[3,3] + mu[3,4] + mu[3,5]
   + mu[3,6] + mu[3,7] = 1
 inP1: x[3,0,0] - 37.97263232250642 mu[3,0] - 36.94775774544475 mu[3,1]
   - 37.14732588230111 mu[3,2] - 38.42105785557459 mu[3,3]
   - 39.80980750999304 mu[3,4] - 40.26781803044902 mu[3,5]
   - 39.45019815332724 mu[3,6] - 37.97263232250646 mu[3,7] = 0
 inP1: x[3,1,0] - 37.97263232250642 mu[3,0] - 36.94775774544475 mu[3,1]
   - 37.14732588230111 mu[3,2] - 38.42105785557459 mu[3,3]
   - 39.80980750999304 mu[3,4] - 40.26781803044902 mu[3,5]
   - 39.45019815332724 mu[3,6] - 37.97263232250646 mu[3,7] = 0
 inP1: x[3,0,1] - 96.26512498480518 mu[3,0] - 95.19255755481183 mu[3,1]
   - 93.72254349047731 mu[3,2] - 92.96203336506755 mu[3,3]
   - 93.48370681459564 mu[3,4] - 94.89473309136771 mu[3,5]
   - 96.13258062928394 mu[3,6] - 96.2651249848052 mu[3,7] = 0
 inP1: x[3,1,1] - 96.26512498480518 mu[3,0] - 95.19255755481183 mu[3,1]
   - 93.72254349047731 mu[3,2] - 92.96203336506755 mu[3,3]
   - 93.48370681459564 mu[3,4] - 94.89473309136771 mu[3,5]
   - 96.13258062928394 mu[3,6] - 96.2651249848052 mu[3,7] = 0
 R223: - x[3,0,0] + x[3,1,0] + difc[3,0] >= 0
 R224: x[3,0,0] - x[3,1,0] + difc[3,0] >= 0
 R225: - x[3,0,1] + x[3,1,1] + difc[3,1] >= 0
 R226: x[3,0,1] - x[3,1,1] + difc[3,1] >= 0
 R227: dc[4] <= 5.69422431015696
 envConv: mu[4,0] + mu[4,1] + mu[4,2] + mu[4,3] = 1
 inP1: x[4,0,0] - 26.45046816218864 mu[4,0] - 22.70612174064357 mu[4,1]
   - 20.86304996926704 mu[4,2] - 26.45046816218865 mu[4,3] = 0
 inP1: x[4,1,0] - 26.45046816218864 mu[4,0] - 22.70612174064357 mu[4,1]
   - 20.86304996926704 mu[4,2] - 26.45046816218865 mu[4,3] = 0
 inP1: x[4,0,1] - 41.1586024792093 mu[4,0] - 45.44859786030764 mu[4,1]
   - 40.06090104813113 mu[4,2] - 41.15860247920932 mu[4,3] = 0
 inP1: x[4,1,1] - 41.1586024792093 mu[4,0] - 45.44859786030764 mu[4,1]
   - 40.06090104813113 mu[4,2] - 41.15860247920932 mu[4,3] = 0
 R233: - x[4,0,0] + x[4,1,0] + difc[4,0] >= 0
 R234: x[4,0,0] - x[4,1,0] + difc[4,0] >= 0
 R235: - x[4,0,1] + x[4,1,1] + difc[4,1] >= 0
 R236: x[4,0,1] - x[4,1,1] + difc[4,1] >= 0
 qc0: [ - dcc[0,1] ^2 + dif[0,1,0] ^2 + dif[0,1,1] ^2 ] <= 0
 qc1: [ - dcc[0,2] ^2 + dif[0,2,0] ^2 + dif[0,2,1] ^2 ] <= 0
 qc2: [ - dcc[0,3] ^2 + dif[0,3,0] ^2 + dif[0,3,1] ^2 ] <= 0
 qc3: [ - dcc[0,4] ^2 + dif[0,4,0] ^2 + dif[0,4,1] ^2 ] <= 0
 qc4: [ - dcc[1,0] ^2 + dif[1,0,0] ^2 + dif[1,0,1] ^2 ] <= 0
 qc5: [ - dcc[1,2] ^2 + dif[1,2,0] ^2 + dif[1,2,1] ^2 ] <= 0
 qc6: [ - dcc[1,3] ^2 + dif[1,3,0] ^2 + dif[1,3,1] ^2 ] <= 0
 qc7: [ - dcc[1,4] ^2 + dif[1,4,0] ^2 + dif[1,4,1] ^2 ] <= 0
 qc8: [ - dcc[2,0] ^2 + dif[2,0,0] ^2 + dif[2,0,1] ^2 ] <= 0
 qc9: [ - dcc[2,1] ^2 + dif[2,1,0] ^2 + dif[2,1,1] ^2 ] <= 0
 qc10: [ - dcc[2,3] ^2 + dif[2,3,0] ^2 + dif[2,3,1] ^2 ] <= 0
 qc11: [ - dcc[2,4] ^2 + dif[2,4,0] ^2 + dif[2,4,1] ^2 ] <= 0
 qc12: [ - dcc[3,0] ^2 + dif[3,0,0] ^2 + dif[3,0,1] ^2 ] <= 0
 qc13: [ - dcc[3,1] ^2 + dif[3,1,0] ^2 + dif[3,1,1] ^2 ] <= 0
 qc14: [ - dcc[3,2] ^2 + dif[3,2,0] ^2 + dif[3,2,1] ^2 ] <= 0
 qc15: [ - dcc[3,4] ^2 + dif[3,4,0] ^2 + dif[3,4,1] ^2 ] <= 0
 qc16: [ - dcc[4,0] ^2 + dif[4,0,0] ^2 + dif[4,0,1] ^2 ] <= 0
 qc17: [ - dcc[4,1] ^2 + dif[4,1,0] ^2 + dif[4,1,1] ^2 ] <= 0
 qc18: [ - dcc[4,2] ^2 + dif[4,2,0] ^2 + dif[4,2,1] ^2 ] <= 0
 qc19: [ - dcc[4,3] ^2 + dif[4,3,0] ^2 + dif[4,3,1] ^2 ] <= 0
 qc20: [ - dc[0] ^2 + difc[0,0] ^2 + difc[0,1] ^2 ] <= 0
 qc21: [ - dc[1] ^2 + difc[1,0] ^2 + difc[1,1] ^2 ] <= 0
 qc22: [ - dc[2] ^2 + difc[2,0] ^2 + difc[2,1] ^2 ] <= 0
 qc23: [ - dc[3] ^2 + difc[3,0] ^2 + difc[3,1] ^2 ] <= 0
 qc24: [ - dc[4] ^2 + difc[4,0] ^2 + difc[4,1] ^2 ] <= 0
Bounds
 mu[0,0] <= 1
 mu[0,1] <= 1
 mu[0,2] <= 1
 mu[0,3] <= 1
 mu[0,4] <= 1
 mu[0,5] <= 1
 mu[1,0] <= 1
 mu[1,1] <= 1
 mu[1,2] <= 1
 mu[1,3] <= 1
 mu[1,4] <= 1
 mu[1,5] <= 1
 mu[1,6] <= 1
 mu[1,7] <= 1
 mu[2,0] <= 1
 mu[2,1] <= 1
 mu[2,2] <= 1
 mu[2,3] <= 1
 mu[2,4] <= 1
 mu[2,5] <= 1
 mu[3,0] <= 1
 mu[3,1] <= 1
 mu[3,2] <= 1
 mu[3,3] <= 1
 mu[3,4] <= 1
 mu[3,5] <= 1
 mu[3,6] <= 1
 mu[3,7] <= 1
 mu[4,0] <= 1
 mu[4,1] <= 1
 mu[4,2] <= 1
 mu[4,3] <= 1
 sc[0] <= 4
 sc[1] <= 4
 sc[2] <= 4
 sc[3] <= 4
 sc[4] <= 4
Binaries
 z[0,1] z[0,2] z[0,3] z[0,4] z[1,0] z[1,2] z[1,3] z[1,4] z[2,0] z[2,1]
 z[2,3] z[2,4] z[3,0] z[3,1] z[3,2] z[3,4] z[4,0] z[4,1] z[4,2] z[4,3]
End
